40
    35    43     7    66    53    26    13    41    36    74    67    53    94    34    32    16    69     7    51    43    29    47    43    52    70    60     7    64    17     6    18     2    23    99    31    94    69     3    80    70
     5     9     5     9     5     1     3     6     4     6     1     6     1     9     2     4     4     2     6     5     9    10     3     4     1     8     9     8     2     2     3     5     4     9     6     5     7     7     4     5
   892  1198   538   525  1016   650   884  1099   634   992  1092   255    10   253   148   633  1093   974   662  1268   411    66   711  1030   787   261   342  1365    60  1361   382  1375    15   539   575   564   675   314  1190   881
